
Gurobi 6.5.2 (win64) logging started 07/23/16 03:12:05


Gurobi 6.5.2 (win64) logging started 07/23/16 03:12:05

Optimize a model with 19416 rows, 864 columns and 39604 nonzeros
Coefficient statistics:
  Matrix range    [1e+00, 1e+00]
  Objective range [7e+00, 5e+01]
  Bounds range    [1e+00, 1e+00]
  RHS range       [1e+00, 1e+00]
Found heuristic solution: objective -0
Presolve removed 19245 rows and 105 columns
Presolve time: 0.03s
Presolved: 171 rows, 759 columns, 2829 nonzeros
Variable types: 0 continuous, 759 integer (759 binary)

Root relaxation: objective 7.940000e+02, 326 iterations, 0.00 seconds

    Nodes    |    Current Node    |     Objective Bounds      |     Work
 Expl Unexpl |  Obj  Depth IntInf | Incumbent    BestBd   Gap | It/Node Time

*    0     0               0     794.0000000  794.00000  0.00%     -    0s

Explored 0 nodes (326 simplex iterations) in 0.03 seconds
Thread count was 8 (of 8 available processors)

Optimal solution found (tolerance 1.00e-04)
Best objective 7.940000000000e+02, best bound 7.940000000000e+02, gap 0.0%

Wrote requested result file 'H2\instance22\\Results22.lp'

